Data path: /scratch/opt/lxu/CFLG/benchmarks/tree_A
Instance: treeA.150.22
Result path: /scratch/opt/lxu/CFLG/results/tree_A
Solver: Gurobi
Time limit: 7200
Formulation: LEFPA
Cover: Small
julia --project=. src/main.jl /scratch/opt/lxu/CFLG/benchmarks/tree_A treeA.150.22 /scratch/opt/lxu/CFLG/results/tree_A Gurobi 7200 LEFPA Small
The latest version of Julia in the `release` channel is 1.11.6+0.x64.linux.gnu. You currently have `1.11.4+0.x64.linux.gnu` installed. Run:

  juliaup update

in your terminal shell to install Julia 1.11.6+0.x64.linux.gnu and update the `release` channel to that version.
/scratch/opt/lxu/CFLG/benchmarks/tree_A Gurobi 7200.0 /scratch/opt/lxu/CFLG/results/tree_A treeA.150.22 LEFPA Small
/scratch/opt/lxu/CFLG/benchmarks/tree_A/treeA.150.22

 read graph
data loaded


after absorb:92 150

max_piece:18
problem_graph/original graph: node: 92/150 edge: 113/171 dlt: 0.37350368461767663 break_avg_len: 2.260854161756557 break_max_len: 6.349947775897901Vbar/V, Ebar/E(91, 92, 112, 113)
Set parameter TokenServer to value "solice01.zib.de"
Set parameter Threads to value 1
Set parameter OutputFlag to value 1
Gurobi Optimizer version 12.0.1 build v12.0.1rc0 (linux64 - "Debian GNU/Linux 12 (bookworm)")

CPU model: Intel(R) Xeon(R) Gold 5222 CPU @ 3.80GHz, instruction set [SSE2|AVX|AVX2|AVX512]
Thread count: 8 physical cores, 16 logical processors, using up to 1 threads

Non-default parameters:
Threads  1

Optimize a model with 205 rows, 339 columns and 565 nonzeros
Model fingerprint: 0x92dd88e8
Coefficient statistics:
  Matrix range     [1e+00, 1e+00]
  Objective range  [1e+00, 1e+00]
  Bounds range     [1e+00, 1e+00]
  RHS range        [1e+00, 1e+00]
Presolve removed 82 rows and 95 columns
Presolve time: 0.01s
Presolved: 123 rows, 244 columns, 388 nonzeros

Iteration    Objective       Primal Inf.    Dual Inf.      Time
       0    9.0000000e+01   3.900000e+01   0.000000e+00      0s
      70    5.4000000e+01   0.000000e+00   0.000000e+00      0s

Solved in 70 iterations and 0.02 seconds (0.00 work units)
Optimal objective  5.400000000e+01

User-callback calls 197, time in user-callback 0.00 sec
elapsed CPU time: 0.947869 seconds
Set parameter TokenServer to value "solice01.zib.de"
Set parameter Threads to value 1
Set parameter OutputFlag to value 1
Set parameter MIPGap to value 0.0001
Set parameter TimeLimit to value 7199.052131

 more cuts: false 0.37350368461767663 false
is_attach:trueformulation:LEFPA112 1 1

 model loaded

Gurobi Optimizer version 12.0.1 build v12.0.1rc0 (linux64 - "Debian GNU/Linux 12 (bookworm)")

CPU model: Intel(R) Xeon(R) Gold 5222 CPU @ 3.80GHz, instruction set [SSE2|AVX|AVX2|AVX512]
Thread count: 8 physical cores, 16 logical processors, using up to 1 threads

Non-default parameters:
TimeLimit  7199.052131
Threads  1

Optimize a model with 1709 rows, 1067 columns and 3331 nonzeros
Model fingerprint: 0xbb69ab6a
Variable types: 318 continuous, 749 integer (749 binary)
Coefficient statistics:
  Matrix range     [2e-02, 1e+00]
  Objective range  [1e+00, 1e+00]
  Bounds range     [2e-02, 6e+00]
  RHS range        [4e-03, 6e+00]
Presolve removed 1207 rows and 550 columns
Presolve time: 0.01s
Presolved: 502 rows, 517 columns, 1482 nonzeros
Variable types: 239 continuous, 278 integer (278 binary)
Found heuristic solution: objective 347.0000000
Found heuristic solution: objective 342.0000000
Found heuristic solution: objective 339.0000000

Root relaxation: objective 3.057152e+02, 533 iterations, 0.00 seconds (0.00 work units)

    Nodes    |    Current Node    |     Objective Bounds      |     Work
 Expl Unexpl |  Obj  Depth IntInf | Incumbent    BestBd   Gap | It/Node Time

     0     0  305.71521    0  156  339.00000  305.71521  9.82%     -    0s
     0     0  316.39073    0  156  339.00000  316.39073  6.67%     -    0s
H    0     0                     336.0000000  316.52006  5.80%     -    0s
     0     0  316.55124    0  163  336.00000  316.55124  5.79%     -    0s
     0     0  316.65447    0  165  336.00000  316.65447  5.76%     -    0s
     0     0  316.66436    0  167  336.00000  316.66436  5.75%     -    0s
     0     0  316.66439    0  167  336.00000  316.66439  5.75%     -    0s
     0     0  320.60448    0  128  336.00000  320.60448  4.58%     -    0s
     0     0  320.83198    0  140  336.00000  320.83198  4.51%     -    0s
     0     0  320.84628    0  146  336.00000  320.84628  4.51%     -    0s
     0     0  320.85218    0  145  336.00000  320.85218  4.51%     -    0s
     0     0  323.03638    0  119  336.00000  323.03638  3.86%     -    0s
     0     0  323.30824    0  123  336.00000  323.30824  3.78%     -    0s
     0     0  323.30824    0  128  336.00000  323.30824  3.78%     -    0s
     0     0  323.98931    0  154  336.00000  323.98931  3.57%     -    0s
     0     0  324.12280    0  150  336.00000  324.12280  3.53%     -    0s
     0     0  324.13790    0  163  336.00000  324.13790  3.53%     -    0s
     0     0  324.14094    0  160  336.00000  324.14094  3.53%     -    0s
     0     0  324.83796    0  141  336.00000  324.83796  3.32%     -    0s
     0     0  324.91506    0  143  336.00000  324.91506  3.30%     -    0s
     0     0  325.43124    0  137  336.00000  325.43124  3.15%     -    0s
     0     0  325.49785    0  143  336.00000  325.49785  3.13%     -    0s
     0     0  325.50704    0  150  336.00000  325.50704  3.12%     -    0s
     0     0  325.50704    0   79  336.00000  325.50704  3.12%     -    0s
     0     2  325.59038    0   71  336.00000  325.59038  3.10%     -    0s
*   80    71              58     335.0000000  326.34038  2.58%   8.8    0s
H  164   120                     334.0000000  326.34038  2.29%   9.8    0s
H  605   426                     333.0000000  328.00000  1.50%  21.2    0s
H 1679   727                     332.0000000  328.00000  1.20%  16.2    1s
  6541  2931     cutoff   32       332.00000  329.00000  0.90%  17.0    5s
 10221  4640  329.22193   27   78  332.00000  329.00000  0.90%  17.8   10s
 12690  5145  330.38958   34   73  332.00000  329.22279  0.84%  20.2   15s
 17061  5216  330.00404   35   69  332.00000  329.65267  0.71%  21.8   20s
 21573  4771  330.00000   24   62  332.00000  329.83333  0.65%  22.7   25s
 26515  5127     cutoff   48       332.00000  330.00000  0.60%  23.1   30s
 31010  6499  330.25859   39   82  332.00000  330.00000  0.60%  23.5   35s
 35563  8083  330.21826   30   84  332.00000  330.00000  0.60%  23.5   40s
 40278  9133     cutoff   48       332.00000  330.00935  0.60%  23.2   45s
 44885 10149     cutoff   42       332.00000  330.02506  0.59%  23.0   50s
 48847 10702  330.07304   35   77  332.00000  330.05713  0.59%  23.1   55s
 53157 11432  330.44209   40   77  332.00000  330.08800  0.58%  23.2   60s
 57454 12169  331.00000   44   23  332.00000  330.12500  0.56%  23.3   65s
 62045 12903  330.16963   38   29  332.00000  330.16963  0.55%  23.4   70s
 66379 13591  330.70728   32   76  332.00000  330.21239  0.54%  23.5   75s
 70863 14133  331.00000   32   42  332.00000  330.25033  0.53%  23.5   80s
 75264 14703  330.66919   41   59  332.00000  330.29066  0.51%  23.6   85s
 79555 15036     cutoff   51       332.00000  330.33333  0.50%  23.7   90s
 83803 15421  331.00000   45    8  332.00000  330.36223  0.49%  23.8   95s
 88059 15859  330.50000   34   55  332.00000  330.40000  0.48%  23.8  100s
 92442 16047  331.00000   48    6  332.00000  330.45658  0.46%  23.8  105s
 96334 16880     cutoff   37       332.00000  330.48080  0.46%  23.8  110s
 100790 17254  330.50000   35   56  332.00000  330.50000  0.45%  23.8  115s
 105181 17794  331.00000   35   49  332.00000  330.50000  0.45%  23.8  120s
 109437 18078  331.00000   53    8  332.00000  330.51665  0.45%  23.8  125s
 114159 18207  331.00000   39   29  332.00000  330.58677  0.43%  23.8  130s
 119504 18897  331.00000   35   38  332.00000  330.63779  0.41%  23.6  135s
 123971 18807  331.00000   37   14  332.00000  330.70511  0.39%  23.6  140s
 128293 19045  331.00000   39   14  332.00000  330.77057  0.37%  23.4  145s
 133677 19206  331.00000   44    7  332.00000  330.97522  0.31%  23.3  150s
 138463 18764  331.00000   41   12  332.00000  331.00000  0.30%  23.1  155s
 143822 18484  331.00000   53   10  332.00000  331.00000  0.30%  22.9  160s
 149173 18173     cutoff   50       332.00000  331.00000  0.30%  22.7  165s
 154665 17966 infeasible   52       332.00000  331.00000  0.30%  22.5  170s
 160180 17978  331.00000   50    6  332.00000  331.00000  0.30%  22.3  175s
 165744 17913     cutoff   43       332.00000  331.00000  0.30%  22.1  180s
 171204 17831     cutoff   39       332.00000  331.00000  0.30%  21.9  185s
 176812 17743  331.00000   54    2  332.00000  331.00000  0.30%  21.7  190s
 182355 17673  331.00000   44   11  332.00000  331.00000  0.30%  21.5  195s
 187426 17476  331.00000   45   10  332.00000  331.00000  0.30%  21.4  200s
 192943 17447  331.00000   61    4  332.00000  331.00000  0.30%  21.2  205s
 198564 17376     cutoff   52       332.00000  331.00000  0.30%  21.0  210s
 204028 17221  331.00000   44   18  332.00000  331.00000  0.30%  20.9  215s
 209672 17134  331.00000   59   14  332.00000  331.00000  0.30%  20.7  220s
 214994 17034     cutoff   49       332.00000  331.00000  0.30%  20.6  225s
 220627 16930  331.00000   43   17  332.00000  331.00000  0.30%  20.5  230s
 225947 16738  331.00000   40    8  332.00000  331.00000  0.30%  20.4  235s
 231431 16593  331.00000   55   19  332.00000  331.00000  0.30%  20.3  240s
 236586 16430  331.00000   49   12  332.00000  331.00000  0.30%  20.2  245s
 242091 16348  331.00000   57    5  332.00000  331.00000  0.30%  20.1  250s
 247637 16288  331.00000   50   10  332.00000  331.00000  0.30%  20.0  255s
 252890 16236  331.00000   38    6  332.00000  331.00000  0.30%  19.9  260s
 258374 16114     cutoff   55       332.00000  331.00000  0.30%  19.8  265s
 263836 16009  331.00000   55    8  332.00000  331.00000  0.30%  19.7  270s
 269118 15849  331.00000   44   11  332.00000  331.00000  0.30%  19.6  275s
 274476 15670  331.00000   61    2  332.00000  331.00000  0.30%  19.6  280s
 279653 15521     cutoff   46       332.00000  331.00000  0.30%  19.5  285s
 285100 15452  331.00000   41   17  332.00000  331.00000  0.30%  19.4  290s
 290701 15315  331.00000   32   19  332.00000  331.00000  0.30%  19.3  295s
 296232 15178     cutoff   42       332.00000  331.00000  0.30%  19.2  300s
 301311 15102  331.00000   48    2  332.00000  331.00000  0.30%  19.1  305s
 306886 14974  331.00000   42   20  332.00000  331.00000  0.30%  19.1  310s
 312474 14859  331.00000   43   14  332.00000  331.00000  0.30%  19.0  315s
 317645 14747  331.00000   49    6  332.00000  331.00000  0.30%  19.0  320s
 323034 14613  331.00000   45   12  332.00000  331.00000  0.30%  18.9  325s
 328685 14477  331.00000   49   18  332.00000  331.00000  0.30%  18.8  330s
 334285 14310  331.00000   46   18  332.00000  331.00000  0.30%  18.8  335s
 339765 14203  331.00000   49   10  332.00000  331.00000  0.30%  18.7  340s
 345187 14068  331.00000   42   11  332.00000  331.00000  0.30%  18.7  345s
 350745 13967     cutoff   49       332.00000  331.00000  0.30%  18.6  350s
 356067 13822     cutoff   43       332.00000  331.00000  0.30%  18.6  355s
 361324 13671  331.00000   52   14  332.00000  331.00000  0.30%  18.5  360s
 366970 13488 infeasible   42       332.00000  331.00000  0.30%  18.5  365s
 372373 13384  331.00000   45    8  332.00000  331.00000  0.30%  18.4  370s
 377963 13211  331.00000   42   13  332.00000  331.00000  0.30%  18.4  375s
 382935 13149     cutoff   55       332.00000  331.00000  0.30%  18.3  380s
 388503 13020  331.00000   42   24  332.00000  331.00000  0.30%  18.3  385s
 393845 12856  331.00000   49   12  332.00000  331.00000  0.30%  18.3  390s
 399187 12704  331.00000   44    4  332.00000  331.00000  0.30%  18.2  395s
 404380 12610  331.00000   44   12  332.00000  331.00000  0.30%  18.2  400s
 410035 12497     cutoff   46       332.00000  331.00000  0.30%  18.2  405s
 415564 12425  331.00000   55   10  332.00000  331.00000  0.30%  18.1  410s
 420847 12324  331.00000   50    4  332.00000  331.00000  0.30%  18.1  415s
 426444 12177  331.00000   40    8  332.00000  331.00000  0.30%  18.1  420s
 431692 12033     cutoff   56       332.00000  331.00000  0.30%  18.0  425s
 437090 11904  331.00000   42   18  332.00000  331.00000  0.30%  18.0  430s
 442478 11861  331.00000   39   18  332.00000  331.00000  0.30%  18.0  435s
 447682 11736  331.00000   52   13  332.00000  331.00000  0.30%  18.0  440s
 453246 11680  331.00000   41   16  332.00000  331.00000  0.30%  17.9  445s
 458808 11594  331.00000   39   22  332.00000  331.00000  0.30%  17.9  450s
 463459 11422     cutoff   52       332.00000  331.00000  0.30%  17.9  455s
 468539 11335  331.00000   44    2  332.00000  331.00000  0.30%  17.9  460s
 473746 11200     cutoff   49       332.00000  331.00000  0.30%  17.9  465s
 479194 11058  331.00000   44    8  332.00000  331.00000  0.30%  17.8  470s
 484646 10909  331.00000   39   14  332.00000  331.00000  0.30%  17.8  475s
 489760 10785  331.00000   47    8  332.00000  331.00000  0.30%  17.8  480s
 495108 10605     cutoff   57       332.00000  331.00000  0.30%  17.8  485s
 500337 10435     cutoff   43       332.00000  331.00000  0.30%  17.8  490s
 505702 10229  331.00000   37   12  332.00000  331.00000  0.30%  17.8  495s
 510799 10109  331.00000   47    2  332.00000  331.00000  0.30%  17.7  500s
 516026  9916  331.00000   35   17  332.00000  331.00000  0.30%  17.7  505s
 521142  9784  331.00000   53    6  332.00000  331.00000  0.30%  17.7  510s
 526222  9710     cutoff   48       332.00000  331.00000  0.30%  17.7  515s
 531472  9566     cutoff   47       332.00000  331.00000  0.30%  17.7  520s
 536925  9462  331.00000   45   26  332.00000  331.00000  0.30%  17.7  525s
 542211  9264  331.00000   46   12  332.00000  331.00000  0.30%  17.7  530s
 547332  9112  331.00000   48    2  332.00000  331.00000  0.30%  17.7  535s
 552001  8955     cutoff   56       332.00000  331.00000  0.30%  17.7  540s
 557402  8833  331.00000   41   33  332.00000  331.00000  0.30%  17.7  545s
 562188  8705  331.00000   42   25  332.00000  331.00000  0.30%  17.6  550s
 567462  8554  331.00000   47   13  332.00000  331.00000  0.30%  17.6  555s
 572587  8427     cutoff   52       332.00000  331.00000  0.30%  17.6  560s
 577810  8245     cutoff   42       332.00000  331.00000  0.30%  17.6  565s
 582898  8124  331.00000   42   28  332.00000  331.00000  0.30%  17.6  570s
 588261  8040  331.00000   42    6  332.00000  331.00000  0.30%  17.6  575s
 593635  7919     cutoff   40       332.00000  331.00000  0.30%  17.6  580s
 598659  7786  331.00000   40   26  332.00000  331.00000  0.30%  17.6  585s
 603923  7660     cutoff   47       332.00000  331.00000  0.30%  17.6  590s
 609150  7482     cutoff   38       332.00000  331.00000  0.30%  17.6  595s
 614495  7395  331.00000   47   12  332.00000  331.00000  0.30%  17.6  600s
 619624  7257  331.00000   37   43  332.00000  331.00000  0.30%  17.6  605s
 624957  7133     cutoff   49       332.00000  331.00000  0.30%  17.6  610s
 630245  7045  331.00000   42   17  332.00000  331.00000  0.30%  17.6  615s
 635362  6896  331.00000   45   24  332.00000  331.00000  0.30%  17.5  620s
 640315  6775  331.00000   50    8  332.00000  331.00000  0.30%  17.5  625s
 645762  6640  331.00000   55   10  332.00000  331.00000  0.30%  17.5  630s
 650955  6502     cutoff   50       332.00000  331.00000  0.30%  17.5  635s
 656416  6434     cutoff   51       332.00000  331.00000  0.30%  17.5  640s
 661688  6253  331.00000   54   25  332.00000  331.00000  0.30%  17.5  645s
 666632  6198     cutoff   52       332.00000  331.00000  0.30%  17.5  650s
 671843  5984  331.00000   46   21  332.00000  331.00000  0.30%  17.5  655s
 676457  5895  331.00000   50   12  332.00000  331.00000  0.30%  17.5  660s
 681476  5716     cutoff   40       332.00000  331.00000  0.30%  17.5  665s
 686570  5605  331.00000   39   24  332.00000  331.00000  0.30%  17.5  670s
 691590  5529  331.00000   37   13  332.00000  331.00000  0.30%  17.5  675s
 696903  5427  331.00000   41   16  332.00000  331.00000  0.30%  17.5  680s
 702110  5277     cutoff   45       332.00000  331.00000  0.30%  17.5  685s
 707382  5190  331.00000   45   16  332.00000  331.00000  0.30%  17.5  690s
 712207  5067  331.00000   44   35  332.00000  331.00000  0.30%  17.5  695s
 717320  4959  331.00000   46   14  332.00000  331.00000  0.30%  17.5  700s
 722528  4830  331.00000   40    6  332.00000  331.00000  0.30%  17.5  705s
 727483  4692  331.00000   49   10  332.00000  331.00000  0.30%  17.5  710s
 732718  4596  331.00000   42   27  332.00000  331.00000  0.30%  17.5  715s
 737874  4430  331.00000   53   16  332.00000  331.00000  0.30%  17.5  720s
 742618  4379     cutoff   45       332.00000  331.00000  0.30%  17.4  725s
 747520  4254     cutoff   49       332.00000  331.00000  0.30%  17.4  730s
 752816  4135  331.00000   45    8  332.00000  331.00000  0.30%  17.4  735s
 757859  4088     cutoff   39       332.00000  331.00000  0.30%  17.4  740s
 762966  3958  331.00000   39   10  332.00000  331.00000  0.30%  17.4  745s
 767214  3885  331.00000   45   18  332.00000  331.00000  0.30%  17.4  750s
 772387  3730     cutoff   42       332.00000  331.00000  0.30%  17.4  755s
 777552  3645  331.00000   46    4  332.00000  331.00000  0.30%  17.4  760s
 782432  3512  331.00000   37   25  332.00000  331.00000  0.30%  17.4  765s
 787574  3407  331.00000   48   32  332.00000  331.00000  0.30%  17.4  770s
 792649  3281  331.00000   44   14  332.00000  331.00000  0.30%  17.4  775s
 797585  3169  331.00000   52   10  332.00000  331.00000  0.30%  17.4  780s
 802829  3073     cutoff   41       332.00000  331.00000  0.30%  17.4  785s
 807720  2934     cutoff   42       332.00000  331.00000  0.30%  17.4  790s
 812991  2883     cutoff   38       332.00000  331.00000  0.30%  17.4  795s
 817933  2768 infeasible   40       332.00000  331.00000  0.30%  17.4  800s
 822123  2638  331.00000   47   12  332.00000  331.00000  0.30%  17.5  805s
 827017  2538     cutoff   52       332.00000  331.00000  0.30%  17.5  810s
 832268  2369     cutoff   35       332.00000  331.00000  0.30%  17.5  815s
 837436  2285  331.00000   50    6  332.00000  331.00000  0.30%  17.5  820s
 842801  2164     cutoff   48       332.00000  331.00000  0.30%  17.4  825s
 848293  2066     cutoff   44       332.00000  331.00000  0.30%  17.4  830s
 853422  1878     cutoff   37       332.00000  331.00000  0.30%  17.4  835s
 858483  1763  331.00000   54   10  332.00000  331.00000  0.30%  17.4  840s
 863067  1680  331.00000   37   19  332.00000  331.00000  0.30%  17.5  845s
 867908  1518  331.00000   43   50  332.00000  331.00000  0.30%  17.5  850s
 872637  1359  331.00000   43   33  332.00000  331.00000  0.30%  17.5  855s
 877264  1222  331.00000   50   15  332.00000  331.00000  0.30%  17.5  860s
 882160  1090  331.00000   50   10  332.00000  331.00000  0.30%  17.5  865s
 886955   906  331.00000   36   14  332.00000  331.00000  0.30%  17.5  870s
 891263   704  331.00000   49   10  332.00000  331.00000  0.30%  17.5  875s
 895580   494     cutoff   42       332.00000  331.00000  0.30%  17.5  880s
 900261   371  331.00000   42   51  332.00000  331.00000  0.30%  17.5  885s
 904397   198  331.00000   38   36  332.00000  331.00000  0.30%  17.6  890s

Cutting planes:
  Learned: 10
  Gomory: 55
  Cover: 367
  Implied bound: 64
  Clique: 4
  MIR: 265
  Mixing: 33
  StrongCG: 6
  Flow cover: 861
  GUB cover: 15
  Inf proof: 15
  Zero half: 32
  RLT: 36
  Relax-and-lift: 20
  BQP: 12

Explored 909259 nodes (15966812 simplex iterations) in 894.97 seconds (712.09 work units)
Thread count was 1 (of 16 available processors)

Solution count 9: 332 332 333 ... 347

Optimal solution found (tolerance 1.00e-04)
Best objective 3.320000000000e+02, best bound 3.320000000000e+02, gap 0.0000%

User-callback calls 2117850, time in user-callback 1.35 sec

 sepatime0 0 0
332.0
Stat(MathOptInterface.OPTIMAL, 332.0, 332.0, 0.0, 0.0, 0.947869, 894.9692590236664, 909259, Main.CFLG.LEFPA, "", #undef)
